0
Node Left Objective IInf Best_Integer Best_Bound ItCnt Gap
0+ 0 nan nan 1364.7233 0.0000 nan 100.00%
0 0 812.3838 7 1364.7233 812.3838 13 40.47%
0+ 0 nan nan 885.8805 812.3838 nan 8.30%
0 2 839.0238 4 885.8805 840.7264 13 5.10%
CPXPARAM_MIP_Cuts_PathCut 0
1
Node Left Objective IInf Best_Integer Best_Bound ItCnt Gap
0+ 0 nan nan 1364.7233 0.0000 nan 100.00%
0 0 0 766.7363 766.7363 12 0.00% 0
CPXPARAM_MIP_Cuts_PathCut 0
2
Node Left Objective IInf Best_Integer Best_Bound ItCnt Gap
0+ 0 nan nan 1364.7233 0.0000 nan 100.00%
0 0 849.1057 4 1364.7233 849.1057 13 37.78%
0+ 0 nan nan 927.4832 849.1057 nan 8.45%
0 2 849.1057 4 927.4832 855.5879 13 7.75%
CPXPARAM_MIP_Cuts_PathCut 0
3
Node Left Objective IInf Best_Integer Best_Bound ItCnt Gap
0+ 0 nan nan 1364.7233 0.0000 nan 100.00%
0 0 0 810.4664 810.4664 13 0.00% 0
CPXPARAM_MIP_Cuts_PathCut 0
4
Node Left Objective IInf Best_Integer Best_Bound ItCnt Gap
0+ 0 nan nan 1151.9244 0.0000 nan 100.00%
0 0 855.2412 6 1151.9244 855.2412 15 25.76%
0+ 0 nan nan 894.7140 855.2412 nan 4.41%
0 0 cutoff 894.7140 855.2412 15 4.41% 0
CPXPARAM_MIP_Cuts_PathCut 0
5
Node Left Objective IInf Best_Integer Best_Bound ItCnt Gap
0+ 0 nan nan 1151.9244 0.0000 nan 100.00%
0 0 0 821.2754 821.2754 13 0.00% 0
CPXPARAM_MIP_Cuts_PathCut 0
6
Node Left Objective IInf Best_Integer Best_Bound ItCnt Gap
0+ 0 nan nan 1151.9244 0.0000 nan 100.00%
0 0 848.1016 7 1151.9244 848.1016 14 26.38%
0+ 0 nan nan 893.0055 848.1016 nan 5.03%
0 0 cutoff 893.0055 848.1016 14 5.03% 0
CPXPARAM_MIP_Cuts_PathCut 0
7
Node Left Objective IInf Best_Integer Best_Bound ItCnt Gap
0+ 0 nan nan 1151.9244 0.0000 nan 100.00%
0 0 0 856.3791 856.3791 13 0.00% 0
CPXPARAM_MIP_Cuts_PathCut 0
8
Node Left Objective IInf Best_Integer Best_Bound ItCnt Gap
0+ 0 nan nan 1316.0374 0.0000 nan 100.00%
0 0 1031.3988 5 1316.0374 1031.3988 13 21.63%
0+ 0 nan nan 1044.6951 1031.3988 nan 1.27%
0 0 cutoff 1044.6951 1031.3988 13 1.27% 0
CPXPARAM_MIP_Cuts_PathCut 0
9
Node Left Objective IInf Best_Integer Best_Bound ItCnt Gap
0+ 0 nan nan 1316.0374 0.0000 nan 100.00%
0 0 0 1027.4893 1027.4893 13 0.00% 0
CPXPARAM_MIP_Cuts_PathCut 0
10
Node Left Objective IInf Best_Integer Best_Bound ItCnt Gap
0+ 0 nan nan 1316.0374 0.0000 nan 100.00%
0 0 1010.7686 6 1316.0374 1010.7686 13 23.20%
0+ 0 nan nan 1158.6365 1010.7686 nan 12.76%
0+ 0 nan nan 1144.3988 1010.7686 nan 11.68%
0 2 1010.7686 6 1144.3988 1021.8217 13 10.71%
CPXPARAM_MIP_Cuts_PathCut 0
11
Node Left Objective IInf Best_Integer Best_Bound ItCnt Gap
0+ 0 nan nan 1316.0374 0.0000 nan 100.00%
0 0 0 1010.7933 1010.7933 12 0.00% 0
CPXPARAM_MIP_Cuts_PathCut 0
12
Node Left Objective IInf Best_Integer Best_Bound ItCnt Gap
0+ 0 nan nan 1103.5671 0.0000 nan 100.00%
0 0 916.9072 6 1103.5671 916.9072 15 16.91%
0+ 0 nan nan 946.5019 916.9072 nan 3.13%
0 1 942.8177 3 946.5019 944.6287 15 0.20%
CPXPARAM_MIP_Cuts_PathCut 0
13
Node Left Objective IInf Best_Integer Best_Bound ItCnt Gap
0+ 0 nan nan 1103.5671 0.0000 nan 100.00%
0 0 0 885.9934 885.9934 13 0.00% 0
CPXPARAM_MIP_Cuts_PathCut 0
14
Node Left Objective IInf Best_Integer Best_Bound ItCnt Gap
0+ 0 nan nan 1103.5671 0.0000 nan 100.00%
0 0 914.6304 6 1103.5671 914.6304 12 17.12%
0+ 0 nan nan 964.0418 914.6304 nan 5.13%
0 2 914.6304 6 964.0418 916.9433 12 4.89%
CPXPARAM_MIP_Cuts_PathCut 0
15
Node Left Objective IInf Best_Integer Best_Bound ItCnt Gap
0+ 0 nan nan 1103.5671 0.0000 nan 100.00%
0 0 0 904.1924 904.1924 15 0.00% 0
CPXPARAM_MIP_Cuts_PathCut 0
16
Node Left Objective IInf Best_Integer Best_Bound ItCnt Gap
0+ 0 nan nan 1092.9842 0.0000 nan 100.00%
0 0 944.0122 4 1092.9842 944.0122 12 13.63%
0+ 0 nan nan 1000.0559 944.0122 nan 5.60%
0+ 0 nan nan 979.3122 944.0122 nan 3.60%
0 2 946.2728 4 979.3122 946.9564 12 3.30%
CPXPARAM_MIP_Cuts_PathCut 0
17
Node Left Objective IInf Best_Integer Best_Bound ItCnt Gap
0+ 0 nan nan 1092.9842 0.0000 nan 100.00%
0 0 0 946.0220 946.0220 13 0.00% 0
CPXPARAM_MIP_Cuts_PathCut 0
18
Node Left Objective IInf Best_Integer Best_Bound ItCnt Gap
0+ 0 nan nan 1092.9842 0.0000 nan 100.00%
0 0 946.0669 5 1092.9842 946.0669 12 13.44%
0+ 0 nan nan 990.2970 946.0669 nan 4.47%
0+ 0 nan nan 974.9566 946.0669 nan 2.96%
0 2 948.0784 5 974.9566 950.4476 12 2.51%
CPXPARAM_MIP_Cuts_PathCut 0
19
Node Left Objective IInf Best_Integer Best_Bound ItCnt Gap
0+ 0 nan nan 1092.9842 0.0000 nan 100.00%
0 0 0 957.8379 957.8379 13 0.00% 0
CPXPARAM_MIP_Cuts_PathCut 0
20
Node Left Objective IInf Best_Integer Best_Bound ItCnt Gap
0+ 0 nan nan 933.7925 0.0000 nan 100.00%
0 0 651.1616 5 933.7925 651.1616 13 30.27%
0+ 0 nan nan 683.4260 651.1616 nan 4.72%
0 0 cutoff 683.4260 651.1616 13 4.72% 0
CPXPARAM_MIP_Cuts_PathCut 0
21
Node Left Objective IInf Best_Integer Best_Bound ItCnt Gap
0+ 0 nan nan 933.7925 0.0000 nan 100.00%
0 0 0 606.4076 606.4076 13 0.00% 0
CPXPARAM_MIP_Cuts_PathCut 0
22
Node Left Objective IInf Best_Integer Best_Bound ItCnt Gap
0+ 0 nan nan 933.7925 0.0000 nan 100.00%
0 0 647.5968 4 933.7925 647.5968 14 30.65%
0+ 0 nan nan 677.8496 647.5968 nan 4.46%
0 0 cutoff 677.8496 647.5968 14 4.46% 0
CPXPARAM_MIP_Cuts_PathCut 0
23
Node Left Objective IInf Best_Integer Best_Bound ItCnt Gap
0+ 0 nan nan 933.7925 0.0000 nan 100.00%
0 0 0 599.6998 599.6998 14 0.00% 0
CPXPARAM_MIP_Cuts_PathCut 0
24
Node Left Objective IInf Best_Integer Best_Bound ItCnt Gap
0+ 0 nan nan 945.0450 0.0000 nan 100.00%
0 0 718.6017 7 945.0450 718.6017 14 23.96%
0+ 0 nan nan 876.9088 718.6017 nan 18.05%
0+ 0 nan nan 762.2628 718.6017 nan 5.73%
0 2 731.4980 5 762.2628 732.7654 14 3.87%
CPXPARAM_MIP_Cuts_PathCut 0
25
Node Left Objective IInf Best_Integer Best_Bound ItCnt Gap
0+ 0 nan nan 945.0450 0.0000 nan 100.00%
0 0 0 699.1337 699.1337 14 0.00% 0
CPXPARAM_MIP_Cuts_PathCut 0
26
Node Left Objective IInf Best_Integer Best_Bound ItCnt Gap
0+ 0 nan nan 945.0450 0.0000 nan 100.00%
0 0 735.4462 5 945.0450 735.4462 14 22.18%
0+ 0 nan nan 767.0483 735.4462 nan 4.12%
0 2 741.9778 2 767.0483 742.6233 14 3.18%
CPXPARAM_MIP_Cuts_PathCut 0
27
Node Left Objective IInf Best_Integer Best_Bound ItCnt Gap
0+ 0 nan nan 945.0450 0.0000 nan 100.00%
0 0 0 695.3404 695.3404 13 0.00% 0
CPXPARAM_MIP_Cuts_PathCut 0
28
Node Left Objective IInf Best_Integer Best_Bound ItCnt Gap
0+ 0 nan nan 1337.0922 0.0000 nan 100.00%
0 0 1130.7262 6 1337.0922 1130.7262 15 15.43%
0+ 0 nan nan 1168.3671 1130.7262 nan 3.22%
0 2 1136.3296 5 1168.3671 1138.3320 15 2.57%
CPXPARAM_MIP_Cuts_PathCut 0
29
Node Left Objective IInf Best_Integer Best_Bound ItCnt Gap
0+ 0 nan nan 1337.0922 0.0000 nan 100.00%
0 0 0 1089.7407 1089.7407 13 0.00% 0
CPXPARAM_MIP_Cuts_PathCut 0
30
Node Left Objective IInf Best_Integer Best_Bound ItCnt Gap
0+ 0 nan nan 1337.0922 0.0000 nan 100.00%
0 0 1123.3320 6 1337.0922 1123.3320 14 15.99%
0+ 0 nan nan 1156.1713 1123.3320 nan 2.84%
0 2 1136.4644 3 1156.1713 1137.6683 14 1.60%
CPXPARAM_MIP_Cuts_PathCut 0
31
Node Left Objective IInf Best_Integer Best_Bound ItCnt Gap
0+ 0 nan nan 1337.0922 0.0000 nan 100.00%
0 0 0 1076.4073 1076.4073 14 0.00% 0
CPXPARAM_MIP_Cuts_PathCut 0
32
Node Left Objective IInf Best_Integer Best_Bound ItCnt Gap
0+ 0 nan nan 1107.0587 0.0000 nan 100.00%
0 0 770.3383 6 1107.0587 770.3383 13 30.42%
0+ 0 nan nan 801.1518 770.3383 nan 3.85%
0 0 cutoff 801.1518 770.3383 13 3.85% 0
CPXPARAM_MIP_Cuts_PathCut 0
33
Node Left Objective IInf Best_Integer Best_Bound ItCnt Gap
0+ 0 nan nan 1107.0587 0.0000 nan 100.00%
0 0 0 718.2236 718.2236 13 0.00% 0
CPXPARAM_MIP_Cuts_PathCut 0
34
Node Left Objective IInf Best_Integer Best_Bound ItCnt Gap
0+ 0 nan nan 1107.0587 0.0000 nan 100.00%
0 0 778.8709 5 1107.0587 778.8709 12 29.65%
0+ 0 nan nan 805.4158 778.8709 nan 3.30%
0 0 cutoff 805.4158 778.8709 12 3.30% 0
CPXPARAM_MIP_Cuts_PathCut 0
35
Node Left Objective IInf Best_Integer Best_Bound ItCnt Gap
0+ 0 nan nan 1107.0587 0.0000 nan 100.00%
0 0 0 827.1110 827.1110 12 0.00% 0
CPXPARAM_MIP_Cuts_PathCut 0
36
Node Left Objective IInf Best_Integer Best_Bound ItCnt Gap
0+ 0 nan nan 1237.1346 0.0000 nan 100.00%
0 0 870.1161 5 1237.1346 870.1161 13 29.67%
0+ 0 nan nan 1009.1813 870.1161 nan 13.78%
0+ 0 nan nan 959.5985 870.1161 nan 9.32%
0 2 870.1161 5 959.5985 877.0561 13 8.60%
CPXPARAM_MIP_Cuts_PathCut 0
37
Node Left Objective IInf Best_Integer Best_Bound ItCnt Gap
0+ 0 nan nan 1237.1346 0.0000 nan 100.00%
0 0 0 827.4534 827.4534 12 0.00% 0
CPXPARAM_MIP_Cuts_PathCut 0
38
Node Left Objective IInf Best_Integer Best_Bound ItCnt Gap
0+ 0 nan nan 1237.1346 0.0000 nan 100.00%
0 0 891.5396 5 1237.1346 891.5396 13 27.94%
0+ 0 nan nan 934.0594 891.5396 nan 4.55%
0 2 903.0049 3 934.0594 905.1415 13 3.10%
CPXPARAM_MIP_Cuts_PathCut 0
39
Node Left Objective IInf Best_Integer Best_Bound ItCnt Gap
0+ 0 nan nan 1237.1346 0.0000 nan 100.00%
0 0 0 894.2632 894.2632 13 0.00% 0
CPXPARAM_MIP_Cuts_PathCut 0
